c FILE: i160-101

c SOURCE: From steinlib

c DESCRIPTION: Steinlib instance with 160 nodes and 240 edges.

p edge 160 240
e 1 17
e 1 26
e 1 44
e 1 82
e 1 100
e 1 116
e 1 129
e 1 136
e 1 137
e 2 26
e 2 103
e 2 108
e 3 97
e 3 136
e 4 72
e 4 153
e 5 79
e 5 117
e 6 15
e 6 81
e 7 15
e 7 75
e 7 93
e 8 38
e 8 45
e 8 85
e 8 87
e 8 96
e 9 74
e 10 52
e 10 133
e 11 129
e 12 23
e 12 106
e 12 141
e 13 20
e 13 46
e 13 71
e 13 85
e 14 56
e 14 89
e 15 59
e 15 62
e 15 77
e 15 90
e 15 151
e 16 85
e 16 134
e 17 21
e 17 22
e 17 79
e 17 109
e 17 123
e 17 145
e 17 149
e 18 81
e 19 56
e 19 94
e 20 83
e 20 91
e 20 102
e 20 106
e 21 83
e 21 86
e 23 44
e 23 54
e 23 76
e 23 108
e 23 117
e 24 26
e 25 26
e 25 38
e 26 45
e 26 60
e 26 89
e 26 158
e 27 109
e 27 129
e 28 64
e 28 140
e 29 118
e 29 137
e 30 159
e 31 37
e 31 40
e 31 73
e 31 82
e 31 115
e 31 122
e 32 82
e 32 160
e 33 40
e 33 77
e 33 120
e 34 63
e 34 72
e 34 84
e 34 135
e 34 154
e 34 157
e 34 159
e 35 45
e 35 86
e 35 109
e 36 43
e 36 100
e 37 90
e 38 140
e 38 145
e 39 88
e 39 150
e 40 65
e 41 75
e 42 51
e 43 60
e 43 74
e 43 122
e 44 52
e 44 56
e 44 66
e 44 84
e 44 130
e 44 133
e 44 136
e 45 91
e 46 140
e 47 82
e 47 96
e 47 116
e 47 121
e 48 67
e 48 83
e 48 99
e 48 129
e 48 147
e 49 55
e 49 118
e 50 150
e 51 137
e 53 116
e 53 129
e 53 142
e 54 58
e 54 145
e 55 142
e 55 153
e 56 99
e 56 101
e 57 86
e 57 117
e 57 132
e 58 116
e 58 119
e 58 137
e 59 68
e 59 73
e 59 137
e 59 155
e 60 126
e 61 112
e 63 80
e 63 110
e 64 143
e 64 159
e 65 101
e 67 131
e 68 96
e 68 134
e 69 137
e 70 126
e 71 106
e 72 129
e 74 99
e 74 120
e 74 126
e 75 80
e 75 85
e 75 86
e 75 99
e 75 132
e 75 138
e 76 157
e 78 136
e 79 125
e 79 149
e 79 151
e 80 81
e 80 92
e 82 102
e 82 105
e 82 113
e 82 127
e 84 116
e 85 95
e 85 98
e 85 103
e 86 99
e 87 112
e 88 158
e 89 90
e 90 114
e 90 117
e 90 151
e 92 139
e 93 97
e 93 118
e 98 102
e 98 122
e 101 155
e 102 144
e 102 146
e 103 130
e 104 147
e 106 123
e 107 120
e 107 134
e 107 159
e 109 140
e 110 130
e 110 143
e 110 148
e 111 150
e 111 155
e 112 125
e 112 160
e 113 144
e 118 137
e 118 138
e 121 147
e 124 128
e 124 151
e 128 147
e 133 150
e 135 141
e 135 155
e 137 156
e 140 150
e 142 147
e 142 151
e 152 155
